c uprop, v00.0, 
c reading from data/prog822.c.cnf
c done reading: 0.002699
p cnf 126 482
-67 -88 0
-70 -88 0
67 70 88 0
67 70 -97 0
-67 -70 -97 0
-67 70 97 0
67 -70 97 0
-75 88 0
-75 -76 0
75 76 -88 0
76 -81 -88 0
-76 -81 88 0
76 81 88 0
-76 81 -88 0
75 -86 0
-86 -90 0
-75 86 90 0
-75 90 -93 0
75 -90 -93 0
75 90 93 0
-75 -90 93 0
86 -95 0
-95 -99 0
-86 95 99 0
-69 -86 99 0
-69 86 -99 0
69 86 99 0
69 -86 -99 0
-66 95 0
-66 -72 0
66 72 -95 0
-64 72 -95 0
-64 -72 95 0
64 72 95 0
64 -72 -95 0
-62 66 0
-62 -78 0
62 -66 78 0
-61 -66 78 0
-61 66 -78 0
61 66 78 0
61 -66 -78 0
-59 62 0
-59 -83 0
59 -62 83 0
-58 -62 83 0
-58 62 -83 0
58 62 83 0
58 -62 -83 0
-56 90 0
-56 67 0
56 -67 -90 0
-55 -67 -90 0
-55 67 90 0
55 67 -90 0
55 -67 90 0
53 -70 -99 0
53 -56 -99 0
53 -56 -70 0
-53 70 99 0
-53 56 99 0
-53 56 70 0
-52 -53 99 0
-52 -53 70 0
-52 -53 56 0
52 53 -99 0
52 53 -70 0
52 53 -56 0
52 -56 -70 -99 0
-52 56 70 99 0
50 -72 -76 0
50 -53 -72 0
50 -53 -76 0
-50 72 76 0
-50 53 72 0
-50 53 76 0
-49 -50 72 0
-49 -50 76 0
-49 -50 53 0
49 50 -72 0
49 50 -76 0
49 50 -53 0
49 -53 -72 -76 0
-49 53 72 76 0
47 -78 -90 0
47 -50 -78 0
47 -50 -90 0
-47 78 90 0
-47 50 78 0
-47 50 90 0
-47 78 -101 0
-47 90 -101 0
-47 50 -101 0
47 -78 101 0
47 -90 101 0
47 -50 101 0
-50 -78 -90 101 0
50 78 90 -101 0
-83 -99 102 0
-47 -83 102 0
-47 -99 102 0
83 99 -102 0
47 83 -102 0
47 99 -102 0
-83 102 0
-99 102 0
-47 102 0
-47 -83 -99 0
72 -103 0
102 -103 0
-72 -102 103 0
-72 102 0
72 -102 0
78 -104 0
103 -104 0
-78 -103 104 0
-78 103 0
78 -103 0
-83 -104 0
-83 104 0
83 -104 0
-67 -91 0
-70 -91 0
67 70 91 0
67 70 -100 0
-67 -70 -100 0
-67 70 100 0
67 -70 100 0
-73 91 0
-73 -76 0
73 76 -91 0
76 -79 -91 0
-76 -79 91 0
76 79 91 0
-76 79 -91 0
73 -84 0
-55 -84 0
55 -73 84 0
55 -73 -105 0
-55 73 -105 0
55 73 105 0
-55 -73 105 0
84 -108 0
-52 -108 0
52 -84 108 0
52 -84 -110 0
-52 84 -110 0
52 84 110 0
-52 -84 110 0
108 -111 0
-49 -111 0
49 -108 111 0
49 -108 -112 0
-49 108 -112 0
49 108 112 0
-49 -108 112 0
111 -113 0
-101 -113 0
101 -111 113 0
101 -111 -114 0
-101 111 -114 0
101 111 114 0
-101 -111 114 0
113 -115 0
-113 115 0
-113 -116 0
113 116 0
115 -117 0
-115 117 0
-115 -118 0
115 118 0
117 -119 0
-117 119 0
-117 -120 0
117 120 0
119 -121 0
-119 121 0
-119 -122 0
119 122 0
121 -123 0
-121 123 0
-121 -124 0
121 124 0
-107 -125 0
-109 -125 0
107 109 125 0
107 109 -126 0
-107 -109 -126 0
-107 109 126 0
107 -109 126 0
-46 125 0
-45 -46 0
45 46 -125 0
-43 45 -125 0
-43 -45 125 0
43 45 125 0
43 -45 -125 0
-42 46 0
-41 -42 0
41 42 -46 0
-40 41 -46 0
-40 -41 46 0
40 41 46 0
40 -41 -46 0
-39 42 0
39 -42 0
-38 -42 0
38 42 0
-37 39 0
37 -39 0
-36 -39 0
36 39 0
-35 37 0
35 -37 0
-34 -37 0
34 37 0
-33 35 0
33 -35 0
-32 -35 0
32 35 0
-31 109 0
-31 107 0
31 -107 -109 0
-30 -107 -109 0
-30 107 109 0
30 107 -109 0
30 -107 109 0
29 -45 -109 0
29 -31 -45 0
29 -31 -109 0
-29 45 109 0
-29 31 45 0
-29 31 109 0
-28 -29 45 0
-28 -29 109 0
-28 -29 31 0
28 29 -45 0
28 29 -109 0
28 29 -31 0
28 -31 -45 -109 0
-28 31 45 109 0
27 -41 -45 0
27 -29 -41 0
27 -29 -45 0
-27 41 45 0
-27 29 41 0
-27 29 45 0
-26 -27 41 0
-26 -27 45 0
-26 -27 29 0
26 27 -41 0
26 27 -45 0
26 27 -29 0
26 -29 -41 -45 0
-26 29 41 45 0
25 -27 -41 0
-25 41 0
-25 27 0
-25 27 41 0
-24 -25 0
-24 -25 41 0
-24 -25 27 0
24 25 -41 0
24 25 -27 0
-24 27 41 0
23 -25 0
-23 25 0
-22 28 0
-22 107 0
22 -28 -107 0
-21 -28 -107 0
-21 28 107 0
21 -28 107 0
21 28 -107 0
20 -26 -109 0
20 -22 -26 0
20 -22 -109 0
-20 26 109 0
-20 22 26 0
-20 22 109 0
-19 -20 26 0
-19 -20 109 0
-19 -20 22 0
19 20 -26 0
19 20 -109 0
19 20 -22 0
19 -22 -26 -109 0
-19 22 26 109 0
18 -24 -45 0
18 -20 -24 0
18 -20 -45 0
-18 24 45 0
-18 20 24 0
-18 20 45 0
-17 -18 24 0
-17 -18 45 0
-17 -18 20 0
17 18 -24 0
17 18 -45 0
17 18 -20 0
17 -20 -24 -45 0
-17 20 24 45 0
16 -23 -41 0
16 -18 -23 0
16 -18 -41 0
-16 23 41 0
-16 18 23 0
-16 18 41 0
-15 -16 23 0
-15 -16 41 0
-15 -16 18 0
15 16 -23 0
15 16 -41 0
15 16 -18 0
15 -18 -23 -41 0
-15 18 23 41 0
14 -16 0
-14 16 0
19 -89 0
-89 107 0
-19 89 -107 0
-19 -98 -107 0
19 -98 107 0
-19 98 107 0
19 98 -107 0
-17 71 -109 0
-17 71 -89 0
71 -89 -109 0
17 -71 109 0
17 -71 89 0
-71 89 109 0
17 -71 -77 0
-71 -77 109 0
-71 -77 89 0
-17 71 77 0
71 77 -109 0
71 77 -89 0
-17 77 -89 -109 0
17 -77 89 109 0
-15 -45 82 0
-15 -71 82 0
-45 -71 82 0
15 45 -82 0
15 71 -82 0
45 71 -82 0
15 -82 -106 0
45 -82 -106 0
71 -82 -106 0
-15 82 106 0
-45 82 106 0
-71 82 106 0
-15 -45 -71 106 0
15 45 71 -106 0
-14 -41 0
-14 -82 0
-41 -82 0
-14 44 0
-41 44 0
44 -82 0
-14 -41 44 -82 0
14 41 -44 82 0
-13 -107 0
-13 -30 0
13 30 107 0
-12 30 107 0
-12 -30 -107 0
12 30 -107 0
12 -30 107 0
-11 13 0
-11 -21 0
11 -13 21 0
-10 -13 21 0
-10 13 -21 0
10 13 21 0
10 -13 -21 0
-9 11 0
-9 -98 0
9 -11 98 0
-8 -11 98 0
-8 11 -98 0
8 11 98 0
8 -11 -98 0
-7 9 0
-7 -77 0
7 -9 77 0
-6 -9 77 0
-6 9 -77 0
6 9 77 0
6 -9 -77 0
-5 7 0
-5 -106 0
5 -7 106 0
-4 -7 106 0
-4 7 -106 0
4 7 106 0
4 -7 -106 0
-3 5 0
-3 -44 0
3 -5 44 0
-2 -5 44 0
-2 5 -44 0
2 5 44 0
2 -5 -44 0
-1 3 0
1 -3 0
-3 -87 0
3 87 0
1 -96 0
-1 96 0
-1 -74 0
1 74 0
-80 96 0
80 -96 0
-85 -96 0
85 96 0
80 -92 0
-80 92 0
-80 -94 0
80 94 0
-68 92 0
68 -92 0
-65 -92 0
65 92 0
-63 67 0
-63 107 0
63 -67 -107 0
-67 -107 0
67 107 0
-30 60 -70 0
60 -63 -70 0
-30 60 -63 0
30 -60 70 0
-60 63 70 0
30 -60 63 0
60 -70 0
-30 60 0
60 -63 0
-30 -63 -70 0
-21 57 -76 0
57 -60 -76 0
-21 57 -60 0
21 -57 76 0
-57 60 76 0
21 -57 60 0
-57 76 0
21 -57 0
-57 60 0
21 60 76 0
54 -55 -98 0
54 -55 -57 0
54 -57 -98 0
-54 55 98 0
-54 55 57 0
-54 57 98 0
-54 55 0
-54 98 0
-54 57 0
55 57 98 0
51 -52 -77 0
51 -52 -54 0
51 -54 -77 0
-51 52 77 0
-51 52 54 0
-51 54 77 0
51 -52 0
51 -77 0
51 -54 0
-52 -54 -77 0
48 -49 -106 0
48 -49 -51 0
48 -51 -106 0
-48 49 106 0
-48 49 51 0
-48 51 106 0
48 -49 0
48 -106 0
48 -51 0
-49 -51 -106 0
-44 -101 0
-48 -101 0
-44 -48 0
44 48 101 0
